
Gurobi 10.0.1 (win64) logging started Tue May  2 03:53:59 2023

Set parameter LogFile to value "logFiles/N-1L-C/N-1L-14U-29F-23V-300D-combined.log"
Gurobi Optimizer version 10.0.1 build v10.0.1rc0 (win64)

CPU model: Intel(R) Core(TM) i7-10700 CPU @ 2.90GHz, instruction set [SSE2|AVX|AVX2]
Thread count: 8 physical cores, 16 logical processors, using up to 16 threads

Optimize a model with 353933 rows, 2900905 columns and 33807150 nonzeros
Model fingerprint: 0x9c7b7570
Variable types: 8540 continuous, 2892365 integer (2892365 binary)
Coefficient statistics:
  Matrix range     [1e+00, 2e+05]
  Objective range  [4e+01, 3e+07]
  Bounds range     [1e+00, 1e+00]
  RHS range        [1e+00, 4e+06]
Presolve removed 124537 rows and 53196 columns (presolve time = 5s) ...
Presolve removed 125642 rows and 54737 columns (presolve time = 11s) ...
Presolve removed 125642 rows and 54737 columns (presolve time = 15s) ...
Presolve removed 131932 rows and 174752 columns (presolve time = 20s) ...
Presolve removed 138486 rows and 174752 columns (presolve time = 25s) ...
Presolve removed 241021 rows and 178631 columns (presolve time = 30s) ...
Presolve removed 241072 rows and 178658 columns (presolve time = 35s) ...
Presolve removed 241224 rows and 178804 columns (presolve time = 40s) ...
Presolve removed 241407 rows and 179035 columns (presolve time = 45s) ...
Presolve removed 241577 rows and 179188 columns (presolve time = 50s) ...
Presolve removed 241324 rows and 178935 columns
Presolve time: 50.17s

Explored 0 nodes (0 simplex iterations) in 60.13 seconds (139.68 work units)
Thread count was 1 (of 16 available processors)

Solution count 0

Time limit reached
Best objective -, best bound -, gap -
IIS computation: initial model status unknown, solving to determine model status
Presolve removed 124537 rows and 53196 columns (presolve time = 5s) ...
Presolve removed 125642 rows and 54737 columns (presolve time = 11s) ...
Presolve removed 125642 rows and 54737 columns (presolve time = 15s) ...
Presolve removed 132016 rows and 176810 columns (presolve time = 20s) ...
Presolve removed 138568 rows and 176810 columns (presolve time = 25s) ...
Presolve removed 243138 rows and 181041 columns (presolve time = 30s) ...
Presolve removed 243163 rows and 181068 columns (presolve time = 35s) ...
Presolve removed 243289 rows and 181201 columns (presolve time = 40s) ...
Presolve removed 243433 rows and 181354 columns (presolve time = 45s) ...
Presolve removed 243577 rows and 181507 columns
Presolve time: 49.00s

Explored 0 nodes (0 simplex iterations) in 60.17 seconds (138.45 work units)
Thread count was 1 (of 16 available processors)

Solution count 0

Time limit reached
Best objective -, best bound -, gap -
IIS runtime: 60.24 seconds (138.45 work units)
